\ENCODING=ISO-8859-1
\Problem name: 

Maximize
 obj: D
Subject To
 c1:  y1 + y2 + y3 + y4 + y5  = 2
 c2:  - D - 49 y1 - 49 y2 >= -139
 c3:  - D - 49 y1 - 49 y3 >= -133
 c4:  - D - 49 y1 - 49 y4 >= -104
 c5:  - D - 49 y1 - 49 y5 >= -128
 c6:  - D - 49 y2 - 49 y3 >= -147
 c7:  - D - 49 y2 - 49 y4 >= -115
 c8:  - D - 49 y2 - 49 y5 >= -134
 c9:  - D - 49 y3 - 49 y4 >= -125
 c10: - D - 49 y3 - 49 y5 >= -127
 c11: - D - 49 y4 - 49 y5 >= -136
Bounds
 0 <= y1 <= 1
 0 <= y2 <= 1
 0 <= y3 <= 1
 0 <= y4 <= 1
 0 <= y5 <= 1
Binaries
 y1  y2  y3  y4  y5 
End
